c nIsolatedPIs 0
c maxPI 12
p cnf 194 547
c gate 13 1 6 0
1 -13 0
6 -13 0
-1 -6 13 0
c gate 14 2 5 0
2 -14 0
5 -14 0
-2 -5 14 0
c gate 15 -13 -14 0
-13 -15 0
-14 -15 0
13 14 15 0
c gate 16 10 -15 0
10 -16 0
-15 -16 0
-10 15 16 0
c gate 17 1 5 0
1 -17 0
5 -17 0
-1 -5 17 0
c gate 18 9 17 0
9 -18 0
17 -18 0
-9 -17 18 0
c gate 19 -10 15 0
-10 -19 0
15 -19 0
10 -15 19 0
c gate 20 -16 -19 0
-16 -20 0
-19 -20 0
16 19 20 0
c gate 21 18 20 0
18 -21 0
20 -21 0
-18 -20 21 0
c gate 22 -16 -21 0
-16 -22 0
-21 -22 0
16 21 22 0
c gate 23 1 7 0
1 -23 0
7 -23 0
-1 -7 23 0
c gate 24 2 6 0
2 -24 0
6 -24 0
-2 -6 24 0
c gate 25 3 5 0
3 -25 0
5 -25 0
-3 -5 25 0
c gate 26 -24 -25 0
-24 -26 0
-25 -26 0
24 25 26 0
c gate 27 23 -26 0
23 -27 0
-26 -27 0
-23 26 27 0
c gate 28 -23 26 0
-23 -28 0
26 -28 0
23 -26 28 0
c gate 29 -27 -28 0
-27 -29 0
-28 -29 0
27 28 29 0
c gate 30 11 29 0
11 -30 0
29 -30 0
-11 -29 30 0
c gate 31 -11 -29 0
-11 -31 0
-29 -31 0
11 29 31 0
c gate 32 -30 -31 0
-30 -32 0
-31 -32 0
30 31 32 0
c gate 33 -22 32 0
-22 -33 0
32 -33 0
22 -32 33 0
c gate 34 22 -32 0
22 -34 0
-32 -34 0
-22 32 34 0
c gate 35 -33 -34 0
-33 -35 0
-34 -35 0
33 34 35 0
c gate 36 13 14 0
13 -36 0
14 -36 0
-13 -14 36 0
c gate 37 24 25 0
24 -37 0
25 -37 0
-24 -25 37 0
c gate 38 -23 37 0
-23 -38 0
37 -38 0
23 -37 38 0
c gate 39 -29 -37 0
-29 -39 0
-37 -39 0
29 37 39 0
c gate 40 -38 -39 0
-38 -40 0
-39 -40 0
38 39 40 0
c gate 41 36 40 0
36 -41 0
40 -41 0
-36 -40 41 0
c gate 42 -36 -40 0
-36 -42 0
-40 -42 0
36 40 42 0
c gate 43 -41 -42 0
-41 -43 0
-42 -43 0
41 42 43 0
c gate 44 11 43 0
11 -44 0
43 -44 0
-11 -43 44 0
c gate 45 -11 -43 0
-11 -45 0
-43 -45 0
11 43 45 0
c gate 46 -44 -45 0
-44 -46 0
-45 -46 0
44 45 46 0
c gate 47 -18 -20 0
-18 -47 0
-20 -47 0
18 20 47 0
c gate 48 -21 -47 0
-21 -48 0
-47 -48 0
21 47 48 0
c gate 49 36 -48 0
36 -49 0
-48 -49 0
-36 48 49 0
c gate 50 -22 -49 0
-22 -50 0
-49 -50 0
22 49 50 0
c gate 51 46 50 0
46 -51 0
50 -51 0
-46 -50 51 0
c gate 52 -46 -50 0
-46 -52 0
-50 -52 0
46 50 52 0
c gate 53 -51 -52 0
-51 -53 0
-52 -53 0
51 52 53 0
c gate 54 35 -53 0
35 -54 0
-53 -54 0
-35 53 54 0
c gate 55 -35 53 0
-35 -55 0
53 -55 0
35 -53 55 0
c gate 56 -54 -55 0
-54 -56 0
-55 -56 0
54 55 56 0
c gate 57 3 8 0
3 -57 0
8 -57 0
-3 -8 57 0
c gate 58 3 6 0
3 -58 0
6 -58 0
-3 -6 58 0
c gate 59 4 7 0
4 -59 0
7 -59 0
-4 -7 59 0
c gate 60 -58 59 0
-58 -60 0
59 -60 0
58 -59 60 0
c gate 61 57 -60 0
57 -61 0
-60 -61 0
-57 60 61 0
c gate 62 -57 60 0
-57 -62 0
60 -62 0
57 -60 62 0
c gate 63 -61 -62 0
-61 -63 0
-62 -63 0
61 62 63 0
c gate 64 4 5 0
4 -64 0
5 -64 0
-4 -5 64 0
c gate 65 58 64 0
58 -65 0
64 -65 0
-58 -64 65 0
c gate 66 2 7 0
2 -66 0
7 -66 0
-2 -7 66 0
c gate 67 -58 -64 0
-58 -67 0
-64 -67 0
58 64 67 0
c gate 68 -65 -67 0
-65 -68 0
-67 -68 0
65 67 68 0
c gate 69 66 68 0
66 -69 0
68 -69 0
-66 -68 69 0
c gate 70 -65 -69 0
-65 -70 0
-69 -70 0
65 69 70 0
c gate 71 4 6 0
4 -71 0
6 -71 0
-4 -6 71 0
c gate 72 3 7 0
3 -72 0
7 -72 0
-3 -7 72 0
c gate 73 -71 -72 0
-71 -73 0
-72 -73 0
71 72 73 0
c gate 74 71 72 0
71 -74 0
72 -74 0
-71 -72 74 0
c gate 75 -73 -74 0
-73 -75 0
-74 -75 0
73 74 75 0
c gate 76 -70 75 0
-70 -76 0
75 -76 0
70 -75 76 0
c gate 77 2 8 0
2 -77 0
8 -77 0
-2 -8 77 0
c gate 78 70 -75 0
70 -78 0
-75 -78 0
-70 75 78 0
c gate 79 -76 -78 0
-76 -79 0
-78 -79 0
76 78 79 0
c gate 80 77 79 0
77 -80 0
79 -80 0
-77 -79 80 0
c gate 81 -76 -80 0
-76 -81 0
-80 -81 0
76 80 81 0
c gate 82 -63 -81 0
-63 -82 0
-81 -82 0
63 81 82 0
c gate 83 -66 -68 0
-66 -83 0
-68 -83 0
66 68 83 0
c gate 84 -69 -83 0
-69 -84 0
-83 -84 0
69 83 84 0
c gate 85 -27 -37 0
-27 -85 0
-37 -85 0
27 37 85 0
c gate 86 84 -85 0
84 -86 0
-85 -86 0
-84 85 86 0
c gate 87 1 8 0
1 -87 0
8 -87 0
-1 -8 87 0
c gate 88 -84 85 0
-84 -88 0
85 -88 0
84 -85 88 0
c gate 89 -86 -88 0
-86 -89 0
-88 -89 0
86 88 89 0
c gate 90 87 89 0
87 -90 0
89 -90 0
-87 -89 90 0
c gate 91 -86 -90 0
-86 -91 0
-90 -91 0
86 90 91 0
c gate 92 -77 -79 0
-77 -92 0
-79 -92 0
77 79 92 0
c gate 93 -80 -92 0
-80 -93 0
-92 -93 0
80 92 93 0
c gate 94 -91 93 0
-91 -94 0
93 -94 0
91 -93 94 0
c gate 95 -87 -89 0
-87 -95 0
-89 -95 0
87 89 95 0
c gate 96 -90 -95 0
-90 -96 0
-95 -96 0
90 95 96 0
c gate 97 41 96 0
41 -97 0
96 -97 0
-41 -96 97 0
c gate 98 91 -93 0
91 -98 0
-93 -98 0
-91 93 98 0
c gate 99 -94 -98 0
-94 -99 0
-98 -99 0
94 98 99 0
c gate 100 97 99 0
97 -100 0
99 -100 0
-97 -99 100 0
c gate 101 -94 -100 0
-94 -101 0
-100 -101 0
94 100 101 0
c gate 102 63 81 0
63 -102 0
81 -102 0
-63 -81 102 0
c gate 103 -82 -102 0
-82 -103 0
-102 -103 0
82 102 103 0
c gate 104 -101 103 0
-101 -104 0
103 -104 0
101 -103 104 0
c gate 105 -82 -104 0
-82 -105 0
-104 -105 0
82 104 105 0
c gate 106 4 8 0
4 -106 0
8 -106 0
-4 -8 106 0
c gate 107 -72 106 0
-72 -107 0
106 -107 0
72 -106 107 0
c gate 108 -8 74 0
-8 -108 0
74 -108 0
8 -74 108 0
c gate 109 -107 -108 0
-107 -109 0
-108 -109 0
107 108 109 0
c gate 110 -105 -109 0
-105 -110 0
-109 -110 0
105 109 110 0
c gate 111 105 109 0
105 -111 0
109 -111 0
-105 -109 111 0
c gate 112 -110 -111 0
-110 -112 0
-111 -112 0
110 111 112 0
c gate 113 -97 -99 0
-97 -113 0
-99 -113 0
97 99 113 0
c gate 114 -100 -113 0
-100 -114 0
-113 -114 0
100 113 114 0
c gate 115 -41 -96 0
-41 -115 0
-96 -115 0
41 96 115 0
c gate 116 -97 -115 0
-97 -116 0
-115 -116 0
97 115 116 0
c gate 117 12 116 0
12 -117 0
116 -117 0
-12 -116 117 0
c gate 118 -12 -116 0
-12 -118 0
-116 -118 0
12 116 118 0
c gate 119 -117 -118 0
-117 -119 0
-118 -119 0
117 118 119 0
c gate 120 -44 -51 0
-44 -120 0
-51 -120 0
44 51 120 0
c gate 121 119 -120 0
119 -121 0
-120 -121 0
-119 120 121 0
c gate 122 -117 -121 0
-117 -122 0
-121 -122 0
117 121 122 0
c gate 123 114 -122 0
114 -123 0
-122 -123 0
-114 122 123 0
c gate 124 101 -103 0
101 -124 0
-103 -124 0
-101 103 124 0
c gate 125 -104 -124 0
-104 -125 0
-124 -125 0
104 124 125 0
c gate 126 123 125 0
123 -126 0
125 -126 0
-123 -125 126 0
c gate 127 112 126 0
112 -127 0
126 -127 0
-112 -126 127 0
c gate 128 -112 -126 0
-112 -128 0
-126 -128 0
112 126 128 0
c gate 129 -127 -128 0
-127 -129 0
-128 -129 0
127 128 129 0
c gate 130 -66 67 0
-66 -130 0
67 -130 0
66 -67 130 0
c gate 131 27 -130 0
27 -131 0
-130 -131 0
-27 130 131 0
c gate 132 -27 130 0
-27 -132 0
130 -132 0
27 -130 132 0
c gate 133 -131 -132 0
-131 -133 0
-132 -133 0
131 132 133 0
c gate 134 87 133 0
87 -134 0
133 -134 0
-87 -133 134 0
c gate 135 -131 -134 0
-131 -135 0
-134 -135 0
131 134 135 0
c gate 136 73 -77 0
73 -136 0
-77 -136 0
-73 77 136 0
c gate 137 -135 -136 0
-135 -137 0
-136 -137 0
135 136 137 0
c gate 138 135 136 0
135 -138 0
136 -138 0
-135 -136 138 0
c gate 139 -137 -138 0
-137 -139 0
-138 -139 0
137 138 139 0
c gate 140 -87 -133 0
-87 -140 0
-133 -140 0
87 133 140 0
c gate 141 -134 -140 0
-134 -141 0
-140 -141 0
134 140 141 0
c gate 142 12 141 0
12 -142 0
141 -142 0
-12 -141 142 0
c gate 143 -30 -33 0
-30 -143 0
-33 -143 0
30 33 143 0
c gate 144 -12 -141 0
-12 -144 0
-141 -144 0
12 141 144 0
c gate 145 -142 -144 0
-142 -145 0
-144 -145 0
142 144 145 0
c gate 146 -143 145 0
-143 -146 0
145 -146 0
143 -145 146 0
c gate 147 -142 -146 0
-142 -147 0
-146 -147 0
142 146 147 0
c gate 148 139 -147 0
139 -148 0
-147 -148 0
-139 147 148 0
c gate 149 -137 -148 0
-137 -149 0
-148 -149 0
137 148 149 0
c gate 150 -63 -149 0
-63 -150 0
-149 -150 0
63 149 150 0
c gate 151 -107 -150 0
-107 -151 0
-150 -151 0
107 150 151 0
c gate 152 -129 -151 0
-129 -152 0
-151 -152 0
129 151 152 0
c gate 153 63 149 0
63 -153 0
149 -153 0
-63 -149 153 0
c gate 154 -150 -153 0
-150 -154 0
-153 -154 0
150 153 154 0
c gate 155 -123 -125 0
-123 -155 0
-125 -155 0
123 125 155 0
c gate 156 -126 -155 0
-126 -156 0
-155 -156 0
126 155 156 0
c gate 157 154 -156 0
154 -157 0
-156 -157 0
-154 156 157 0
c gate 158 -154 156 0
-154 -158 0
156 -158 0
154 -156 158 0
c gate 159 -139 147 0
-139 -159 0
147 -159 0
139 -147 159 0
c gate 160 -148 -159 0
-148 -160 0
-159 -160 0
148 159 160 0
c gate 161 -114 122 0
-114 -161 0
122 -161 0
114 -122 161 0
c gate 162 -123 -161 0
-123 -162 0
-161 -162 0
123 161 162 0
c gate 163 160 -162 0
160 -163 0
-162 -163 0
-160 162 163 0
c gate 164 -160 162 0
-160 -164 0
162 -164 0
160 -162 164 0
c gate 165 143 -145 0
143 -165 0
-145 -165 0
-143 145 165 0
c gate 166 -146 -165 0
-146 -166 0
-165 -166 0
146 165 166 0
c gate 167 -119 120 0
-119 -167 0
120 -167 0
119 -120 167 0
c gate 168 -121 -167 0
-121 -168 0
-167 -168 0
121 167 168 0
c gate 169 166 -168 0
166 -169 0
-168 -169 0
-166 168 169 0
c gate 170 -166 168 0
-166 -170 0
168 -170 0
166 -168 170 0
c gate 171 -49 -55 0
-49 -171 0
-55 -171 0
49 55 171 0
c gate 172 -54 -171 0
-54 -172 0
-171 -172 0
54 171 172 0
c gate 173 -170 -172 0
-170 -173 0
-172 -173 0
170 172 173 0
c gate 174 -169 -173 0
-169 -174 0
-173 -174 0
169 173 174 0
c gate 175 -164 -174 0
-164 -175 0
-174 -175 0
164 174 175 0
c gate 176 -163 -175 0
-163 -176 0
-175 -176 0
163 175 176 0
c gate 177 -158 -176 0
-158 -177 0
-176 -177 0
158 176 177 0
c gate 178 -157 -177 0
-157 -178 0
-177 -178 0
157 177 178 0
c gate 179 -152 178 0
-152 -179 0
178 -179 0
152 -178 179 0
c gate 180 129 151 0
129 -180 0
151 -180 0
-129 -151 180 0
c gate 181 -63 137 0
-63 -181 0
137 -181 0
63 -137 181 0
c gate 182 -72 -181 0
-72 -182 0
-181 -182 0
72 181 182 0
c gate 183 106 -182 0
106 -183 0
-182 -183 0
-106 182 183 0
c gate 184 -110 -127 0
-110 -184 0
-127 -184 0
110 127 184 0
c gate 185 -183 -184 0
-183 -185 0
-184 -185 0
183 184 185 0
c gate 186 -180 -185 0
-180 -186 0
-185 -186 0
180 185 186 0
c gate 187 -179 186 0
-179 -187 0
186 -187 0
179 -186 187 0
c gate 188 -49 187 0
-49 -188 0
187 -188 0
49 -187 188 0
c gate 189 36 48 0
36 -189 0
48 -189 0
-36 -48 189 0
c gate 190 -187 -189 0
-187 -190 0
-189 -190 0
187 189 190 0
c gate 191 -188 -190 0
-188 -191 0
-190 -191 0
188 190 191 0
c gate 192 56 -191 0
56 -192 0
-191 -192 0
-56 191 192 0
c gate 193 -56 191 0
-56 -193 0
191 -193 0
56 -191 193 0
c gate 194 -192 -193 0
-192 -194 0
-193 -194 0
192 193 194 0
c PO
194 0
